# Solvation calculation with CPCM
! B3LYP def2-SVP OPT CPCM(Water)
%maxcore 4000
%pal nprocs 4 end
%cpcm
  epsilon 80.4
  refrac 1.33
end

* xyz 0 1
  C   0.000000   0.000000   0.000000
  O   1.200000   0.000000   0.000000
  H  -0.500000   0.900000   0.000000
  H  -0.500000  -0.900000   0.000000
*
